
******************************************************************************
This program contains Ipopt, a library for large-scale nonlinear optimization.
 Ipopt is released as open source code under the Eclipse Public License (EPL).
         For more information visit http://projects.coin-or.org/Ipopt

This version of Ipopt was compiled from source code available at
    https://github.com/IDAES/Ipopt as part of the Institute for the Design of
    Advanced Energy Systems Process Systems Engineering Framework (IDAES PSE
    Framework) Copyright (c) 2018-2019. See https://github.com/IDAES/idaes-pse.

This version of Ipopt was compiled using HSL, a collection of Fortran codes
    for large-scale scientific computation.  All technical papers, sales and
    publicity material resulting from use of the HSL codes within IPOPT must
    contain the following acknowledgement:
        HSL, a collection of Fortran codes for large-scale scientific
        computation. See http://www.hsl.rl.ac.uk.
******************************************************************************

This is Ipopt version 3.13.2, running with linear solver ma27.

Number of nonzeros in equality constraint Jacobian...:      808
Number of nonzeros in inequality constraint Jacobian.:        0
Number of nonzeros in Lagrangian Hessian.............:      702

Total number of variables............................:      351
                     variables with only lower bounds:      108
                variables with lower and upper bounds:      189
                     variables with only upper bounds:        0
Total number of equality constraints.................:      350
Total number of inequality constraints...............:        0
        inequality constraints with only lower bounds:        0
   inequality constraints with lower and upper bounds:        0
        inequality constraints with only upper bounds:        0

iter    objective    inf_pr   inf_du lg(mu)  ||d||  lg(rg) alpha_du alpha_pr  ls
   0  0.0000000e+00 5.00e-01 2.31e-14  -1.0 0.00e+00    -  0.00e+00 0.00e+00   0
   1  3.4731170e-01 3.51e-01 4.55e+04  -1.0 1.28e+05    -  6.58e-01 3.00e-01h  1
   2  3.5960942e-01 3.48e-01 4.56e+04  -1.0 9.95e+04    -  8.43e-01 7.84e-03h  1
   3  1.4424126e+01 9.13e-02 5.32e+04  -1.0 2.74e+05    -  7.35e-01 8.40e-01h  1
   4  2.6080944e+01 4.86e-03 4.85e+03  -1.0 8.69e+04    -  9.10e-01 9.90e-01h  1
   5  2.6746399e+01 6.06e-05 3.70e+01  -1.0 4.39e+03    -  9.88e-01 9.90e-01h  1
   6  2.6793660e+01 5.31e-06 1.33e+01  -1.0 2.79e+02    -  9.90e-01 9.90e-01h  1
   7  2.6772098e+01 1.64e-06 8.18e+02  -1.7 1.25e+02    -  9.90e-01 9.90e-01h  1
   8  2.6755912e+01 9.15e-07 1.65e+05  -2.5 9.30e+01    -  9.98e-01 9.97e-01h  1
   9  2.6756272e+01 3.15e-09 2.55e+08  -2.5 2.07e+00    -  1.00e+00 9.97e-01h  1
In iteration 9, 27 Slacks too small, adjusting variable bounds
iter    objective    inf_pr   inf_du lg(mu)  ||d||  lg(rg) alpha_du alpha_pr  ls
  10  2.6756273e+01 3.52e-11 9.01e+10  -2.5 5.60e-03    -  1.00e+00 9.97e-01h  1
  11  2.6756273e+01 9.68e-12 1.95e-03  -2.5 1.58e-05    -  1.00e+00 1.00e+00h  1
  12  2.6756229e+01 7.03e-12 8.92e+10  -9.0 1.63e+01    -  1.00e+00 1.56e-02f  7
  13  2.6753434e+01 3.27e-11 4.82e+04  -9.0 1.60e+01    -  1.00e+00 1.00e+00F  1
  14  2.6753434e+01 3.03e-12 3.64e-11  -9.0 5.17e-06    -  1.00e+00 1.00e+00h  1

Number of Iterations....: 14

                                   (scaled)                 (unscaled)
Objective...............:   2.6753433718150479e+01    2.6753433718150479e+01
Dual infeasibility......:   3.6379788070917130e-11    3.6379788070917130e-11
Constraint violation....:   3.0282443219675770e-12    3.0282443219675770e-12
Complementarity.........:   9.0909173731587502e-10    9.0909173731587502e-10
Overall NLP error.......:   5.6330903702645746e-11    9.0909173731587502e-10


Number of objective function evaluations             = 25
Number of objective gradient evaluations             = 15
Number of equality constraint evaluations            = 25
Number of inequality constraint evaluations          = 0
Number of equality constraint Jacobian evaluations   = 15
Number of inequality constraint Jacobian evaluations = 0
Number of Lagrangian Hessian evaluations             = 14
Total CPU secs in IPOPT (w/o function evaluations)   =      0.030
Total CPU secs in NLP function evaluations           =      0.283

EXIT: Optimal Solution Found.
